NAME : cgl_73.6263.tour
COMMENT : Length = 6263
COMMENT : Found by LKH-3 [Keld Helsgaun] Fri Nov  8 17:38:21 2024
TYPE : TOUR
DIMENSION : 74
TOUR_SECTION
40
44
45
42
30
31
69
70
68
62
60
61
67
65
66
64
63
74
21
3
6
7
2
8
5
4
15
18
17
20
16
19
14
11
12
9
13
10
1
22
23
71
72
24
25
73
26
29
27
28
56
57
55
49
52
51
48
50
47
54
53
59
36
33
35
39
32
37
58
38
34
41
43
46
-1
EOF
